array [1..4] of float: X_INTRODUCED_13_ = [-1.0,-1.0,1.0,1.0];
array [1..3] of int: X_INTRODUCED_14_ = [1,-1,-1];
var 1..9: x:: output_var;
var 1..9: y:: output_var;
var 1..9: z:: output_var;
var 1..9: w:: output_var;
var 1..9: j:: output_var;
var 1..9: k:: output_var;
var 2..18: X:: is_defined_var:: output_var;
var 1.0..9.0: X_INTRODUCED_0_ ::var_is_introduced :: is_defined_var;
var 1.0..9.0: X_INTRODUCED_1_ ::var_is_introduced :: is_defined_var;
var 0.1111111111111111..9.0: X_INTRODUCED_2_ ::var_is_introduced :: is_defined_var;
var 1.0..9.0: X_INTRODUCED_7_ ::var_is_introduced :: is_defined_var;
var 1.0..9.0: X_INTRODUCED_8_ ::var_is_introduced :: is_defined_var;
var -8..8: X_INTRODUCED_11_ ::var_is_introduced :: is_defined_var;
var -8.0..8.0: X_INTRODUCED_12_ ::var_is_introduced :: is_defined_var;
constraint float_div(X_INTRODUCED_0_,X_INTRODUCED_1_,X_INTRODUCED_2_):: defines_var(X_INTRODUCED_2_);
constraint float_lin_le(X_INTRODUCED_13_,[X_INTRODUCED_7_,X_INTRODUCED_8_,X_INTRODUCED_2_,X_INTRODUCED_12_],0.0);
constraint int_lin_eq(X_INTRODUCED_14_,[X,x,y],0):: defines_var(X);
constraint int2float(j,X_INTRODUCED_0_):: defines_var(X_INTRODUCED_0_);
constraint int2float(k,X_INTRODUCED_1_):: defines_var(X_INTRODUCED_1_);
constraint int2float(x,X_INTRODUCED_7_):: defines_var(X_INTRODUCED_7_);
constraint int2float(y,X_INTRODUCED_8_):: defines_var(X_INTRODUCED_8_);
constraint int_lin_eq([1,-1,-1],[z,w,X_INTRODUCED_11_],0):: defines_var(X_INTRODUCED_11_);
constraint int2float(X_INTRODUCED_11_,X_INTRODUCED_12_):: defines_var(X_INTRODUCED_12_);
solve  satisfy;
